solution status: optimal solution found
objective value:                                   18
ts#0                                                4 	(obj:0)
ts#1                                                2 	(obj:10)
ts#2                                                6 	(obj:0)
ts#3                                               10 	(obj:0)
ts#4                                               17 	(obj:0)
ts#5                                               47 	(obj:0)
ts#6                                               15 	(obj:0)
ts#7                                               51 	(obj:0)
ts#8                                               27 	(obj:0)
ts#9                                               48 	(obj:0)
te#0                                                5 	(obj:0)
te#1                                                4 	(obj:0)
te#2                                                8 	(obj:0)
te#3                                               14 	(obj:0)
te#4                                               27 	(obj:0)
te#5                                               48 	(obj:0)
te#6                                               17 	(obj:0)
te#7                                               56 	(obj:0)
te#8                                               47 	(obj:0)
te#9                                               51 	(obj:0)
__C_4_1_xm_1@16                                     2 	(obj:0)
__C_4_1_bm_3@18                                     1 	(obj:0)
__C_4_1_xm_6@1b                                     3 	(obj:0)
__C_4_1_bm_8@1d                                     1 	(obj:0)
__C_4_1_re_9@1e                                     1 	(obj:0)
__C_4_2_xp_11@20                                    2 	(obj:0)
__C_4_2_bp_13@22                                    1 	(obj:0)
__C_4_2_re_15@24                                    1 	(obj:0)
__C_4_2_xp_16@25                                    1 	(obj:0)
__C_4_2_bp_18@27                                    1 	(obj:0)
__C_4_3_xp_22@2b                                    6 	(obj:0)
__C_4_3_bp_24@2d                                    1 	(obj:0)
__C_4_3_re_26@2f                                    1 	(obj:0)
__C_4_3_xp_27@30                                    5 	(obj:0)
__C_4_3_bp_29@32                                    1 	(obj:0)
__C_4_4_xp_33@36                                   13 	(obj:0)
__C_4_4_bp_35@38                                    1 	(obj:0)
__C_4_4_re_37@3a                                    1 	(obj:0)
__C_4_4_xp_38@3b                                   12 	(obj:0)
__C_4_4_bp_40@3d                                    1 	(obj:0)
__C_4_5_xp_44@41                                   43 	(obj:0)
__C_4_5_bp_46@43                                    1 	(obj:0)
__C_4_5_re_48@45                                    1 	(obj:0)
__C_4_5_xp_49@46                                   42 	(obj:0)
__C_4_5_bp_51@48                                    1 	(obj:0)
__C_4_6_xp_55@4c                                   11 	(obj:0)
__C_4_6_bp_57@4e                                    1 	(obj:0)
__C_4_6_re_59@50                                    1 	(obj:0)
__C_4_6_xp_60@51                                   10 	(obj:0)
__C_4_6_bp_62@53                                    1 	(obj:0)
__C_4_7_xp_66@57                                   47 	(obj:0)
__C_4_7_bp_68@59                                    1 	(obj:0)
__C_4_7_re_70@5b                                    1 	(obj:0)
__C_4_7_xp_71@5c                                   46 	(obj:0)
__C_4_7_bp_73@5e                                    1 	(obj:0)
__C_4_8_xp_77@62                                   23 	(obj:0)
__C_4_8_bp_79@64                                    1 	(obj:0)
__C_4_8_re_81@66                                    1 	(obj:0)
__C_4_8_xp_82@67                                   22 	(obj:0)
__C_4_8_bp_84@69                                    1 	(obj:0)
__C_4_9_xp_88@6d                                   44 	(obj:0)
__C_4_9_bp_90@6f                                    1 	(obj:0)
__C_4_9_re_92@71                                    1 	(obj:0)
__C_4_9_xp_93@72                                   43 	(obj:0)
__C_4_9_bp_95@74                                    1 	(obj:0)
__C_4_10_xp_9@78                                    2 	(obj:0)
__C_4_10_bp_1@7a                                    1 	(obj:0)
__C_4_10_re_1@7c                                    1 	(obj:0)
__C_4_11_xp_1@83                                    4 	(obj:0)
__C_4_11_bp_1@85                                    1 	(obj:0)
__C_4_11_re_1@87                                    1 	(obj:0)
__C_4_11_xp_1@88                                    2 	(obj:0)
__C_4_11_bp_1@8a                                    1 	(obj:0)
__C_4_12_xp_1@8e                                    8 	(obj:0)
__C_4_12_bp_1@90                                    1 	(obj:0)
__C_4_12_re_1@92                                    1 	(obj:0)
__C_4_12_xp_1@93                                    6 	(obj:0)
__C_4_12_bp_1@95                                    1 	(obj:0)
__C_4_13_xp_1@99                                   15 	(obj:0)
__C_4_13_bp_1@9b                                    1 	(obj:0)
__C_4_13_re_1@9d                                    1 	(obj:0)
__C_4_13_xp_1@9e                                   13 	(obj:0)
__C_4_13_bp_1@a0                                    1 	(obj:0)
__C_4_14_xp_1@a4                                   45 	(obj:0)
__C_4_14_bp_1@a6                                    1 	(obj:0)
__C_4_14_re_1@a8                                    1 	(obj:0)
__C_4_14_xp_1@a9                                   43 	(obj:0)
__C_4_14_bp_1@ab                                    1 	(obj:0)
__C_4_15_xp_1@af                                   13 	(obj:0)
__C_4_15_bp_1@b1                                    1 	(obj:0)
__C_4_15_re_1@b3                                    1 	(obj:0)
__C_4_15_xp_1@b4                                   11 	(obj:0)
__C_4_15_bp_1@b6                                    1 	(obj:0)
__C_4_16_xp_1@ba                                   49 	(obj:0)
__C_4_16_bp_1@bc                                    1 	(obj:0)
__C_4_16_re_1@be                                    1 	(obj:0)
__C_4_16_xp_1@bf                                   47 	(obj:0)
__C_4_16_bp_1@c1                                    1 	(obj:0)
__C_4_17_xp_1@c5                                   25 	(obj:0)
__C_4_17_bp_1@c7                                    1 	(obj:0)
__C_4_17_re_1@c9                                    1 	(obj:0)
__C_4_17_xp_1@ca                                   23 	(obj:0)
__C_4_17_bp_1@cc                                    1 	(obj:0)
__C_4_18_xp_1@d0                                   46 	(obj:0)
__C_4_18_bp_1@d2                                    1 	(obj:0)
__C_4_18_re_1@d4                                    1 	(obj:0)
__C_4_18_xp_1@d5                                   44 	(obj:0)
__C_4_18_bp_1@d7                                    1 	(obj:0)
__C_4_19_xm_1@dc                                    2 	(obj:0)
__C_4_19_bm_2@de                                    1 	(obj:0)
__C_4_19_xm_2@e1                                    4 	(obj:0)
__C_4_19_bm_2@e3                                    1 	(obj:0)
__C_4_19_re_2@e4                                    1 	(obj:0)
__C_4_20_xm_2@e7                                    4 	(obj:0)
__C_4_20_bm_2@e9                                    1 	(obj:0)
__C_4_20_xm_2@ec                                    6 	(obj:0)
__C_4_20_bm_2@ee                                    1 	(obj:0)
__C_4_20_re_2@ef                                    1 	(obj:0)
__C_4_21_xp_2@f1                                    4 	(obj:0)
__C_4_21_bp_2@f3                                    1 	(obj:0)
__C_4_21_re_2@f5                                    1 	(obj:0)
__C_4_21_xp_2@f6                                    2 	(obj:0)
__C_4_21_bp_2@f8                                    1 	(obj:0)
__C_4_22_xp_2@fc                                   11 	(obj:0)
__C_4_22_bp_2@fe                                    1 	(obj:0)
__C_4_22_re_@100                                    1 	(obj:0)
__C_4_22_xp_@101                                    9 	(obj:0)
__C_4_22_bp_@103                                    1 	(obj:0)
__C_4_23_xp_@107                                   41 	(obj:0)
__C_4_23_bp_@109                                    1 	(obj:0)
__C_4_23_re_@10b                                    1 	(obj:0)
__C_4_23_xp_@10c                                   39 	(obj:0)
__C_4_23_bp_@10e                                    1 	(obj:0)
__C_4_24_xp_@112                                    9 	(obj:0)
__C_4_24_bp_@114                                    1 	(obj:0)
__C_4_24_re_@116                                    1 	(obj:0)
__C_4_24_xp_@117                                    7 	(obj:0)
__C_4_24_bp_@119                                    1 	(obj:0)
__C_4_25_xp_@11d                                   45 	(obj:0)
__C_4_25_bp_@11f                                    1 	(obj:0)
__C_4_25_re_@121                                    1 	(obj:0)
__C_4_25_xp_@122                                   43 	(obj:0)
__C_4_25_bp_@124                                    1 	(obj:0)
__C_4_26_xp_@128                                   21 	(obj:0)
__C_4_26_bp_@12a                                    1 	(obj:0)
__C_4_26_re_@12c                                    1 	(obj:0)
__C_4_26_xp_@12d                                   19 	(obj:0)
__C_4_26_bp_@12f                                    1 	(obj:0)
__C_4_27_xp_@133                                   42 	(obj:0)
__C_4_27_bp_@135                                    1 	(obj:0)
__C_4_27_re_@137                                    1 	(obj:0)
__C_4_27_xp_@138                                   40 	(obj:0)
__C_4_27_bp_@13a                                    1 	(obj:0)
__C_4_28_xm_@13f                                    6 	(obj:0)
__C_4_28_bm_@141                                    1 	(obj:0)
__C_4_28_xm_@144                                   10 	(obj:0)
__C_4_28_bm_@146                                    1 	(obj:0)
__C_4_28_re_@147                                    1 	(obj:0)
__C_4_29_xm_@14a                                    8 	(obj:0)
__C_4_29_bm_@14c                                    1 	(obj:0)
__C_4_29_xm_@14f                                   12 	(obj:0)
__C_4_29_bm_@151                                    1 	(obj:0)
__C_4_29_re_@152                                    1 	(obj:0)
__C_4_30_xm_@155                                    4 	(obj:0)
__C_4_30_bm_@157                                    1 	(obj:0)
__C_4_30_xm_@15a                                    8 	(obj:0)
__C_4_30_bm_@15c                                    1 	(obj:0)
__C_4_30_re_@15d                                    1 	(obj:0)
__C_4_31_xp_@15f                                    7 	(obj:0)
__C_4_31_bp_@161                                    1 	(obj:0)
__C_4_31_re_@163                                    1 	(obj:0)
__C_4_31_xp_@164                                    3 	(obj:0)
__C_4_31_bp_@166                                    1 	(obj:0)
__C_4_32_xp_@16a                                   37 	(obj:0)
__C_4_32_bp_@16c                                    1 	(obj:0)
__C_4_32_re_@16e                                    1 	(obj:0)
__C_4_32_xp_@16f                                   33 	(obj:0)
__C_4_32_bp_@171                                    1 	(obj:0)
__C_4_33_xp_@175                                    5 	(obj:0)
__C_4_33_bp_@177                                    1 	(obj:0)
__C_4_33_re_@179                                    1 	(obj:0)
__C_4_33_xp_@17a                                    1 	(obj:0)
__C_4_33_bp_@17c                                    1 	(obj:0)
__C_4_34_xp_@180                                   41 	(obj:0)
__C_4_34_bp_@182                                    1 	(obj:0)
__C_4_34_re_@184                                    1 	(obj:0)
__C_4_34_xp_@185                                   37 	(obj:0)
__C_4_34_bp_@187                                    1 	(obj:0)
__C_4_35_xp_@18b                                   17 	(obj:0)
__C_4_35_bp_@18d                                    1 	(obj:0)
__C_4_35_re_@18f                                    1 	(obj:0)
__C_4_35_xp_@190                                   13 	(obj:0)
__C_4_35_bp_@192                                    1 	(obj:0)
__C_4_36_xp_@196                                   38 	(obj:0)
__C_4_36_bp_@198                                    1 	(obj:0)
__C_4_36_re_@19a                                    1 	(obj:0)
__C_4_36_xp_@19b                                   34 	(obj:0)
__C_4_36_bp_@19d                                    1 	(obj:0)
__C_4_37_xm_@1a2                                   13 	(obj:0)
__C_4_37_bm_@1a4                                    1 	(obj:0)
__C_4_37_xm_@1a7                                   23 	(obj:0)
__C_4_37_bm_@1a9                                    1 	(obj:0)
__C_4_37_re_@1aa                                    1 	(obj:0)
__C_4_38_xm_@1ad                                   15 	(obj:0)
__C_4_38_bm_@1af                                    1 	(obj:0)
__C_4_38_xm_@1b2                                   25 	(obj:0)
__C_4_38_bm_@1b4                                    1 	(obj:0)
__C_4_38_re_@1b5                                    1 	(obj:0)
__C_4_39_xm_@1b8                                   11 	(obj:0)
__C_4_39_bm_@1ba                                    1 	(obj:0)
__C_4_39_xm_@1bd                                   21 	(obj:0)
__C_4_39_bm_@1bf                                    1 	(obj:0)
__C_4_39_re_@1c0                                    1 	(obj:0)
__C_4_40_xm_@1c3                                    7 	(obj:0)
__C_4_40_bm_@1c5                                    1 	(obj:0)
__C_4_40_xm_@1c8                                   17 	(obj:0)
__C_4_40_bm_@1ca                                    1 	(obj:0)
__C_4_40_re_@1cb                                    1 	(obj:0)
__C_4_41_xp_@1cd                                   30 	(obj:0)
__C_4_41_bp_@1cf                                    1 	(obj:0)
__C_4_41_re_@1d1                                    1 	(obj:0)
__C_4_41_xp_@1d2                                   20 	(obj:0)
__C_4_41_bp_@1d4                                    1 	(obj:0)
__C_4_42_xm_@1d9                                    2 	(obj:0)
__C_4_42_bm_@1db                                    1 	(obj:0)
__C_4_42_xm_@1de                                   12 	(obj:0)
__C_4_42_bm_@1e0                                    1 	(obj:0)
__C_4_42_re_@1e1                                    1 	(obj:0)
__C_4_43_xp_@1e3                                   34 	(obj:0)
__C_4_43_bp_@1e5                                    1 	(obj:0)
__C_4_43_re_@1e7                                    1 	(obj:0)
__C_4_43_xp_@1e8                                   24 	(obj:0)
__C_4_43_bp_@1ea                                    1 	(obj:0)
__C_4_44_xp_@1ee                                   10 	(obj:0)
__C_4_44_bp_@1f0                                    1 	(obj:0)
__C_4_44_re_@1f2                                    1 	(obj:0)
__C_4_45_xp_@1f9                                   31 	(obj:0)
__C_4_45_bp_@1fb                                    1 	(obj:0)
__C_4_45_re_@1fd                                    1 	(obj:0)
__C_4_45_xp_@1fe                                   21 	(obj:0)
__C_4_45_bp_@200                                    1 	(obj:0)
__C_4_46_xm_@205                                   43 	(obj:0)
__C_4_46_bm_@207                                    1 	(obj:0)
__C_4_46_xm_@20a                                   44 	(obj:0)
__C_4_46_bm_@20c                                    1 	(obj:0)
__C_4_46_re_@20d                                    1 	(obj:0)
__C_4_47_xm_@210                                   45 	(obj:0)
__C_4_47_bm_@212                                    1 	(obj:0)
__C_4_47_xm_@215                                   46 	(obj:0)
__C_4_47_bm_@217                                    1 	(obj:0)
__C_4_47_re_@218                                    1 	(obj:0)
__C_4_48_xm_@21b                                   41 	(obj:0)
__C_4_48_bm_@21d                                    1 	(obj:0)
__C_4_48_xm_@220                                   42 	(obj:0)
__C_4_48_bm_@222                                    1 	(obj:0)
__C_4_48_re_@223                                    1 	(obj:0)
__C_4_49_xm_@226                                   37 	(obj:0)
__C_4_49_bm_@228                                    1 	(obj:0)
__C_4_49_xm_@22b                                   38 	(obj:0)
__C_4_49_bm_@22d                                    1 	(obj:0)
__C_4_49_re_@22e                                    1 	(obj:0)
__C_4_50_xm_@231                                   30 	(obj:0)
__C_4_50_bm_@233                                    1 	(obj:0)
__C_4_50_xm_@236                                   31 	(obj:0)
__C_4_50_bm_@238                                    1 	(obj:0)
__C_4_50_re_@239                                    1 	(obj:0)
__C_4_51_xm_@23c                                   32 	(obj:0)
__C_4_51_bm_@23e                                    1 	(obj:0)
__C_4_51_xm_@241                                   33 	(obj:0)
__C_4_51_bm_@243                                    1 	(obj:0)
__C_4_51_re_@244                                    1 	(obj:0)
__C_4_52_xp_@246                                    4 	(obj:0)
__C_4_52_bp_@248                                    1 	(obj:0)
__C_4_52_re_@24a                                    1 	(obj:0)
__C_4_52_xp_@24b                                    3 	(obj:0)
__C_4_52_bp_@24d                                    1 	(obj:0)
__C_4_53_xm_@252                                   20 	(obj:0)
__C_4_53_bm_@254                                    1 	(obj:0)
__C_4_53_xm_@257                                   21 	(obj:0)
__C_4_53_bm_@259                                    1 	(obj:0)
__C_4_53_re_@25a                                    1 	(obj:0)
__C_4_54_xp_@25c                                    1 	(obj:0)
__C_4_54_bp_@25e                                    1 	(obj:0)
__C_4_54_re_@260                                    1 	(obj:0)
__C_4_55_xm_@268                                   11 	(obj:0)
__C_4_55_bm_@26a                                    1 	(obj:0)
__C_4_55_xm_@26d                                   13 	(obj:0)
__C_4_55_bm_@26f                                    1 	(obj:0)
__C_4_55_re_@270                                    1 	(obj:0)
__C_4_56_xm_@273                                   13 	(obj:0)
__C_4_56_bm_@275                                    1 	(obj:0)
__C_4_56_xm_@278                                   15 	(obj:0)
__C_4_56_bm_@27a                                    1 	(obj:0)
__C_4_56_re_@27b                                    1 	(obj:0)
__C_4_57_xm_@27e                                    9 	(obj:0)
__C_4_57_bm_@280                                    1 	(obj:0)
__C_4_57_xm_@283                                   11 	(obj:0)
__C_4_57_bm_@285                                    1 	(obj:0)
__C_4_57_re_@286                                    1 	(obj:0)
__C_4_58_xm_@289                                    5 	(obj:0)
__C_4_58_bm_@28b                                    1 	(obj:0)
__C_4_58_xm_@28e                                    7 	(obj:0)
__C_4_58_bm_@290                                    1 	(obj:0)
__C_4_58_re_@291                                    1 	(obj:0)
__C_4_59_xp_@293                                    2 	(obj:0)
__C_4_59_bp_@295                                    1 	(obj:0)
__C_4_59_re_@297                                    1 	(obj:0)
__C_4_60_xp_@29e                                   32 	(obj:0)
__C_4_60_bp_@2a0                                    1 	(obj:0)
__C_4_60_re_@2a2                                    1 	(obj:0)
__C_4_60_xp_@2a3                                   30 	(obj:0)
__C_4_60_bp_@2a5                                    1 	(obj:0)
__C_4_61_xp_@2a9                                   36 	(obj:0)
__C_4_61_bp_@2ab                                    1 	(obj:0)
__C_4_61_re_@2ad                                    1 	(obj:0)
__C_4_61_xp_@2ae                                   34 	(obj:0)
__C_4_61_bp_@2b0                                    1 	(obj:0)
__C_4_62_xp_@2b4                                   12 	(obj:0)
__C_4_62_bp_@2b6                                    1 	(obj:0)
__C_4_62_re_@2b8                                    1 	(obj:0)
__C_4_62_xp_@2b9                                   10 	(obj:0)
__C_4_62_bp_@2bb                                    1 	(obj:0)
__C_4_63_xp_@2bf                                   33 	(obj:0)
__C_4_63_bp_@2c1                                    1 	(obj:0)
__C_4_63_re_@2c3                                    1 	(obj:0)
__C_4_63_xp_@2c4                                   31 	(obj:0)
__C_4_63_bp_@2c6                                    1 	(obj:0)
__C_4_64_xm_@2cb                                   47 	(obj:0)
__C_4_64_bm_@2cd                                    1 	(obj:0)
__C_4_64_xm_@2d0                                   52 	(obj:0)
__C_4_64_bm_@2d2                                    1 	(obj:0)
__C_4_64_re_@2d3                                    1 	(obj:0)
__C_4_65_xm_@2d6                                   49 	(obj:0)
__C_4_65_bm_@2d8                                    1 	(obj:0)
__C_4_65_xm_@2db                                   54 	(obj:0)
__C_4_65_bm_@2dd                                    1 	(obj:0)
__C_4_65_re_@2de                                    1 	(obj:0)
__C_4_66_xm_@2e1                                   45 	(obj:0)
__C_4_66_bm_@2e3                                    1 	(obj:0)
__C_4_66_xm_@2e6                                   50 	(obj:0)
__C_4_66_bm_@2e8                                    1 	(obj:0)
__C_4_66_re_@2e9                                    1 	(obj:0)
__C_4_67_xm_@2ec                                   41 	(obj:0)
__C_4_67_bm_@2ee                                    1 	(obj:0)
__C_4_67_xm_@2f1                                   46 	(obj:0)
__C_4_67_bm_@2f3                                    1 	(obj:0)
__C_4_67_re_@2f4                                    1 	(obj:0)
__C_4_68_xm_@2f7                                   34 	(obj:0)
__C_4_68_bm_@2f9                                    1 	(obj:0)
__C_4_68_xm_@2fc                                   39 	(obj:0)
__C_4_68_bm_@2fe                                    1 	(obj:0)
__C_4_68_re_@2ff                                    1 	(obj:0)
__C_4_69_xm_@302                                    4 	(obj:0)
__C_4_69_bm_@304                                    1 	(obj:0)
__C_4_69_xm_@307                                    9 	(obj:0)
__C_4_69_bm_@309                                    1 	(obj:0)
__C_4_69_re_@30a                                    1 	(obj:0)
__C_4_70_xm_@30d                                   36 	(obj:0)
__C_4_70_bm_@30f                                    1 	(obj:0)
__C_4_70_xm_@312                                   41 	(obj:0)
__C_4_70_bm_@314                                    1 	(obj:0)
__C_4_70_re_@315                                    1 	(obj:0)
__C_4_71_xm_@318                                   24 	(obj:0)
__C_4_71_bm_@31a                                    1 	(obj:0)
__C_4_71_xm_@31d                                   29 	(obj:0)
__C_4_71_bm_@31f                                    1 	(obj:0)
__C_4_71_re_@320                                    1 	(obj:0)
__C_4_72_xm_@323                                    3 	(obj:0)
__C_4_72_bm_@325                                    1 	(obj:0)
__C_4_72_xm_@328                                    8 	(obj:0)
__C_4_72_bm_@32a                                    1 	(obj:0)
__C_4_72_re_@32b                                    1 	(obj:0)
__C_4_73_xm_@32e                                   23 	(obj:0)
__C_4_73_bm_@330                                    1 	(obj:0)
__C_4_73_xm_@333                                   43 	(obj:0)
__C_4_73_bm_@335                                    1 	(obj:0)
__C_4_73_re_@336                                    1 	(obj:0)
__C_4_74_xm_@339                                   25 	(obj:0)
__C_4_74_bm_@33b                                    1 	(obj:0)
__C_4_74_xm_@33e                                   45 	(obj:0)
__C_4_74_bm_@340                                    1 	(obj:0)
__C_4_74_re_@341                                    1 	(obj:0)
__C_4_75_xm_@344                                   21 	(obj:0)
__C_4_75_bm_@346                                    1 	(obj:0)
__C_4_75_xm_@349                                   41 	(obj:0)
__C_4_75_bm_@34b                                    1 	(obj:0)
__C_4_75_re_@34c                                    1 	(obj:0)
__C_4_76_xm_@34f                                   17 	(obj:0)
__C_4_76_bm_@351                                    1 	(obj:0)
__C_4_76_xm_@354                                   37 	(obj:0)
__C_4_76_bm_@356                                    1 	(obj:0)
__C_4_76_re_@357                                    1 	(obj:0)
__C_4_77_xm_@35a                                   10 	(obj:0)
__C_4_77_bm_@35c                                    1 	(obj:0)
__C_4_77_xm_@35f                                   30 	(obj:0)
__C_4_77_bm_@361                                    1 	(obj:0)
__C_4_77_re_@362                                    1 	(obj:0)
__C_4_78_xp_@364                                   20 	(obj:0)
__C_4_78_bp_@366                                    1 	(obj:0)
__C_4_78_re_@368                                    1 	(obj:0)
__C_4_79_xm_@370                                   12 	(obj:0)
__C_4_79_bm_@372                                    1 	(obj:0)
__C_4_79_xm_@375                                   32 	(obj:0)
__C_4_79_bm_@377                                    1 	(obj:0)
__C_4_79_re_@378                                    1 	(obj:0)
__C_4_80_xp_@37a                                   24 	(obj:0)
__C_4_80_bp_@37c                                    1 	(obj:0)
__C_4_80_re_@37e                                    1 	(obj:0)
__C_4_80_xp_@37f                                    4 	(obj:0)
__C_4_80_bp_@381                                    1 	(obj:0)
__C_4_81_xp_@385                                   21 	(obj:0)
__C_4_81_bp_@387                                    1 	(obj:0)
__C_4_81_re_@389                                    1 	(obj:0)
__C_4_81_xp_@38a                                    1 	(obj:0)
__C_4_81_bp_@38c                                    1 	(obj:0)
__C_4_82_xm_@391                                   44 	(obj:0)
__C_4_82_bm_@393                                    1 	(obj:0)
__C_4_82_xm_@396                                   47 	(obj:0)
__C_4_82_bm_@398                                    1 	(obj:0)
__C_4_82_re_@399                                    1 	(obj:0)
__C_4_83_xm_@39c                                   46 	(obj:0)
__C_4_83_bm_@39e                                    1 	(obj:0)
__C_4_83_xm_@3a1                                   49 	(obj:0)
__C_4_83_bm_@3a3                                    1 	(obj:0)
__C_4_83_re_@3a4                                    1 	(obj:0)
__C_4_84_xm_@3a7                                   42 	(obj:0)
__C_4_84_bm_@3a9                                    1 	(obj:0)
__C_4_84_xm_@3ac                                   45 	(obj:0)
__C_4_84_bm_@3ae                                    1 	(obj:0)
__C_4_84_re_@3af                                    1 	(obj:0)
__C_4_85_xm_@3b2                                   38 	(obj:0)
__C_4_85_bm_@3b4                                    1 	(obj:0)
__C_4_85_xm_@3b7                                   41 	(obj:0)
__C_4_85_bm_@3b9                                    1 	(obj:0)
__C_4_85_re_@3ba                                    1 	(obj:0)
__C_4_86_xm_@3bd                                   31 	(obj:0)
__C_4_86_bm_@3bf                                    1 	(obj:0)
__C_4_86_xm_@3c2                                   34 	(obj:0)
__C_4_86_bm_@3c4                                    1 	(obj:0)
__C_4_86_re_@3c5                                    1 	(obj:0)
__C_4_87_xm_@3c8                                    1 	(obj:0)
__C_4_87_bm_@3ca                                    1 	(obj:0)
__C_4_87_xm_@3cd                                    4 	(obj:0)
__C_4_87_bm_@3cf                                    1 	(obj:0)
__C_4_87_re_@3d0                                    1 	(obj:0)
__C_4_88_xm_@3d3                                   33 	(obj:0)
__C_4_88_bm_@3d5                                    1 	(obj:0)
__C_4_88_xm_@3d8                                   36 	(obj:0)
__C_4_88_bm_@3da                                    1 	(obj:0)
__C_4_88_re_@3db                                    1 	(obj:0)
__C_4_89_xp_@3dd                                    3 	(obj:0)
__C_4_89_bp_@3df                                    1 	(obj:0)
__C_4_89_re_@3e1                                    1 	(obj:0)
__C_4_90_xm_@3e9                                   21 	(obj:0)
__C_4_90_bm_@3eb                                    1 	(obj:0)
__C_4_90_xm_@3ee                                   24 	(obj:0)
__C_4_90_bm_@3f0                                    1 	(obj:0)
__C_4_90_re_@3f1                                    1 	(obj:0)
__ObjOffset@14                                      1 	(obj:-2)
